25	2	3
10	6	52	44	73	
0	0	0	7	2	9	10	6	2	12	2	3	4	6	7	11	14	15	18	19	21	24
13	4	2	8	5	4	2	5	6	1	5
17	3	2	5	9	1	9	2	2	2	10	8
13	4	2	4	10	5	3	6	4	1	8
8	3	2	5	1	6	6	8	4	1	25
10	4	2	4	5	5	2	4	1	3	12	13	22
13	4	2	4	2	6	8	3	10	2	10	9
16	4	2	4	8	9	4	6	1	1	22
12	4	2	5	9	1	10	2	6	1	25
16	3	2	4	6	6	9	2	4	1	13
13	3	2	2	5	8	7	6	2	1	23
11	4	2	8	10	3	3	7	6	1	25
12	3	2	3	10	3	2	3	9	1	25
18	3	2	2	8	8	2	7	10	1	16
19	4	2	8	10	6	3	9	7	1	17
9	4	2	7	1	1	4	8	7	1	25
10	4	2	6	5	6	9	8	2	1	25
12	3	2	5	1	1	7	3	4	1	25
7	4	2	6	5	1	3	7	8	1	20
7	3	2	2	4	8	7	7	6	1	25
8	4	2	4	3	7	4	7	4	1	25
9	4	2	1	2	8	6	1	6	1	25
8	4	2	8	5	7	8	1	9	1	25
10	4	2	2	7	3	3	10	9	1	25
0	0	0	10	2	2	8	9	9	0
